Geographic Exponential Decay
20 136 212 192 305 256 39 258 131 275 260 2 232 132 82 143 213 94 118 102 60
p edge 320 1224
e 0 49 2.0
e 0 210 6.0
e 0 70 5.0
e 1 148 1.0
e 1 236 6.0
e 2 43 71.0
e 2 292 68.0
e 2 220 86.0
e 2 140 60.0
e 2 197 51.0
e 2 264 27.0
e 2 71 100.0
e 2 28 7.0
e 2 231 32.0
e 2 114 40.0
e 2 288 12.0
e 2 30 11.0
e 2 50 43.0
e 2 263 88.0
e 2 81 96.0
e 2 179 79.0
e 2 190 17.0
e 2 110 24.0
e 2 121 85.0
e 2 84 79.0
e 2 133 92.0
e 2 308 30.0
e 2 85 55.0
e 2 178 80.0
e 2 108 88.0
e 2 40 37.0
e 2 309 75.0
e 2 122 13.0
e 2 14 37.0
e 2 265 39.0
e 2 177 34.0
e 2 259 14.0
e 2 78 35.0
e 2 305 20.0
e 2 266 7.0
e 2 172 16.0
e 2 310 80.0
e 3 256 72.0
e 3 145 6.0
e 3 283 4.0
e 3 28 1.0
e 3 201 11.0
e 4 242 3.0
e 4 71 5.0
e 4 274 4.0
e 5 234 2.0
e 5 53 1.0
e 6 196 1.0
e 6 57 1.0
e 7 315 4.0
e 7 231 4.0
e 7 156 3.0
e 8 16 1.0
e 8 205 1.0
e 9 38 4.0
e 9 134 2.0
e 10 317 38.0
e 10 241 30.0
e 10 126 30.0
e 10 33 42.0
e 10 133 6.0
e 10 43 46.0
e 10 209 40.0
e 10 24 28.0
e 10 19 33.0
e 10 57 49.0
e 10 162 27.0
e 10 107 7.0
e 10 275 92.0
e 10 49 27.0
e 10 77 6.0
e 10 50 11.0
e 10 29 42.0
e 10 219 18.0
e 10 242 47.0
e 11 6 1.0
e 11 173 2.0
e 12 162 4.0
e 12 7 3.0
e 12 62 6.0
e 12 70 11.0
e 12 185 6.0
e 13 289 2.0
e 13 194 1.0
e 14 158 4.0
e 15 147 5.0
e 15 121 10.0
e 16 217 4.0
e 17 47 2.0
e 17 9 1.0
e 17 231 5.0
e 18 311 3.0
e 18 203 12.0
e 18 55 3.0
e 18 156 11.0
e 18 82 15.0
e 19 317 7.0
e 19 6 9.0
e 19 168 5.0
e 19 129 6.0
e 20 247 2.0
e 20 105 1.0
e 21 262 5.0
e 21 170 5.0
e 21 59 4.0
e 22 103 3.0
e 22 147 5.0
e 22 282 1.0
e 23 111 40.0
e 23 312 1.0
e 23 142 1.0
e 23 266 12.0
e 23 26 5.0
e 24 228 2.0
e 25 52 1.0
e 25 198 1.0
e 25 69 10.0
e 25 284 10.0
e 25 203 8.0
e 25 104 1.0
e 25 150 20.0
e 25 294 21.0
e 25 184 23.0
e 25 135 18.0
e 26 279 3.0
e 26 8 2.0
e 26 152 6.0
e 26 160 4.0
e 27 157 1.0
e 27 84 1.0
e 29 25 24.0
e 30 138 1.0
e 31 236 6.0
e 31 163 1.0
e 32 157 6.0
e 32 12 1.0
e 32 181 11.0
e 32 49 3.0
e 32 246 5.0
e 33 44 11.0
e 33 277 12.0
e 33 160 4.0
e 33 114 2.0
e 34 63 2.0
e 34 221 2.0
e 35 268 12.0
e 35 16 2.0
e 36 175 2.0
e 36 185 1.0
e 37 167 2.0
e 37 127 1.0
e 38 196 1.0
e 38 113 3.0
e 39 298 75.0
e 39 240 66.0
e 39 187 12.0
e 39 235 45.0
e 39 226 79.0
e 39 236 85.0
e 39 132 35.0
e 39 224 88.0
e 39 154 64.0
e 39 93 25.0
e 39 220 100.0
e 39 203 88.0
e 39 178 19.0
e 39 149 35.0
e 39 288 68.0
e 39 316 14.0
e 39 291 49.0
e 39 242 39.0
e 39 300 21.0
e 39 144 70.0
e 39 179 75.0
e 39 185 80.0
e 39 16 85.0
e 39 289 42.0
e 39 28 82.0
e 39 305 11.0
e 39 310 99.0
e 39 146 13.0
e 39 308 9.0
e 39 290 36.0
e 39 243 40.0
e 39 84 56.0
e 39 237 39.0
e 39 228 31.0
e 39 8 43.0
e 39 22 52.0
e 39 169 66.0
e 40 86 4.0
e 40 199 5.0
e 41 153 1.0
e 41 232 41.0
e 41 221 5.0
e 42 156 7.0
e 42 226 1.0
e 43 316 10.0
e 43 303 12.0
e 43 304 1.0
e 44 66 2.0
e 45 57 1.0
e 45 151 3.0
e 45 4 4.0
e 46 138 11.0
e 46 14 6.0
e 46 71 4.0
e 46 155 9.0
e 46 244 4.0
e 47 89 1.0
e 47 173 1.0
e 48 174 1.0
e 48 113 1.0
e 50 211 1.0
e 51 122 4.0
e 51 256 34.0
e 52 164 4.0
e 53 231 1.0
e 53 216 2.0
e 54 73 9.0
e 54 180 1.0
e 54 162 11.0
e 54 267 8.0
e 54 70 11.0
e 55 178 5.0
e 55 302 2.0
e 56 64 2.0
e 56 152 1.0
e 58 307 1.0
e 58 43 1.0
e 59 161 7.0
e 60 13 72.0
e 60 153 60.0
e 60 298 42.0
e 60 282 32.0
e 60 196 53.0
e 60 257 60.0
e 60 280 76.0
e 60 115 47.0
e 60 17 42.0
e 60 61 71.0
e 60 85 85.0
e 60 299 57.0
e 60 63 20.0
e 60 88 66.0
e 60 142 91.0
e 60 151 77.0
e 60 230 34.0
e 60 268 84.0
e 60 227 13.0
e 60 108 80.0
e 60 290 41.0
e 60 131 29.0
e 60 100 1.0
e 60 232 16.0
e 60 101 66.0
e 60 95 49.0
e 60 113 11.0
e 60 162 1.0
e 60 92 74.0
e 60 249 99.0
e 60 52 63.0
e 60 176 66.0
e 60 8 12.0
e 60 28 34.0
e 60 272 95.0
e 60 144 77.0
e 60 117 3.0
e 61 25 22.0
e 62 244 5.0
e 62 154 1.0
e 64 66 8.0
e 65 258 91.0
e 65 237 2.0
e 66 270 1.0
e 66 205 1.0
e 66 142 11.0
e 67 209 1.0
e 67 259 5.0
e 67 137 3.0
e 68 241 1.0
e 68 198 8.0
e 69 84 11.0
e 72 7 1.0
e 72 230 1.0
e 73 276 1.0
e 74 277 1.0
e 74 272 1.0
e 75 0 2.0
e 75 271 4.0
e 76 184 2.0
e 76 200 2.0
e 77 115 2.0
e 78 238 1.0
e 79 188 10.0
e 79 55 2.0
e 80 55 3.0
e 80 154 1.0
e 81 265 1.0
e 81 86 22.0
e 81 309 19.0
e 81 249 16.0
e 81 178 1.0
e 81 301 6.0
e 81 198 10.0
e 81 34 12.0
e 81 40 14.0
e 82 73 65.0
e 82 128 95.0
e 82 198 55.0
e 82 145 18.0
e 82 110 36.0
e 82 83 81.0
e 82 192 64.0
e 82 174 97.0
e 82 13 45.0
e 82 224 84.0
e 82 162 87.0
e 82 146 22.0
e 82 66 7.0
e 82 250 28.0
e 82 132 94.0
e 82 169 68.0
e 82 230 21.0
e 82 243 42.0
e 82 280 76.0
e 82 261 92.0
e 82 19 73.0
e 82 101 59.0
e 82 32 60.0
e 82 70 72.0
e 82 81 61.0
e 82 76 15.0
e 82 67 55.0
e 82 75 80.0
e 82 43 96.0
e 82 144 55.0
e 82 38 1.0
e 82 77 6.0
e 82 238 83.0
e 82 96 41.0
e 82 244 7.0
e 82 16 78.0
e 83 146 1.0
e 83 138 20.0
e 83 145 2.0
e 83 139 21.0
e 83 59 3.0
e 83 177 1.0
e 83 55 19.0
e 83 205 13.0
e 83 220 11.0
e 84 211 3.0
e 85 68 5.0
e 87 310 1.0
e 87 295 3.0
e 88 244 1.0
e 89 212 1.0
e 90 261 2.0
e 90 296 1.0
e 91 26 5.0
e 91 57 1.0
e 91 53 2.0
e 92 208 1.0
e 93 126 11.0
e 93 166 9.0
e 93 299 4.0
e 93 108 5.0
e 94 289 2.0
e 94 301 95.0
e 94 263 53.0
e 94 97 49.0
e 94 84 45.0
e 94 23 11.0
e 94 302 28.0
e 94 230 92.0
e 94 124 89.0
e 94 266 55.0
e 94 312 28.0
e 94 179 10.0
e 94 154 13.0
e 94 233 88.0
e 94 234 3.0
e 94 264 10.0
e 94 81 100.0
e 94 92 36.0
e 94 141 68.0
e 94 102 61.0
e 94 318 62.0
e 94 200 71.0
e 94 9 54.0
e 94 283 25.0
e 94 88 81.0
e 94 257 59.0
e 94 108 90.0
e 94 31 81.0
e 94 171 67.0
e 94 74 9.0
e 94 143 5.0
e 94 0 73.0
e 94 258 5.0
e 94 99 68.0
e 94 274 71.0
e 94 32 88.0
e 94 194 100.0
e 95 153 3.0
e 96 103 3.0
e 96 174 3.0
e 97 219 6.0
e 98 148 2.0
e 98 273 2.0
e 98 216 5.0
e 99 241 2.0
e 100 21 1.0
e 101 243 10.0
e 101 71 9.0
e 101 194 6.0
e 101 225 11.0
e 101 190 13.0
e 101 46 22.0
e 101 66 18.0
e 101 83 15.0
e 102 172 46.0
e 102 271 3.0
e 102 186 31.0
e 102 22 22.0
e 102 246 50.0
e 102 31 95.0
e 102 5 76.0
e 102 306 68.0
e 102 144 95.0
e 102 257 44.0
e 102 225 93.0
e 102 16 80.0
e 102 182 5.0
e 102 194 16.0
e 102 134 25.0
e 102 307 78.0
e 102 198 60.0
e 102 304 57.0
e 102 51 54.0
e 102 133 78.0
e 102 6 69.0
e 102 46 83.0
e 102 178 42.0
e 102 100 5.0
e 102 78 13.0
e 102 283 25.0
e 102 13 49.0
e 102 289 39.0
e 102 248 12.0
e 102 164 37.0
e 102 146 13.0
e 102 268 49.0
e 102 117 80.0
e 102 116 54.0
e 102 255 80.0
e 102 145 21.0
e 104 134 4.0
e 104 103 12.0
e 104 316 19.0
e 104 312 9.0
e 105 41 6.0
e 106 121 8.0
e 106 210 1.0
e 107 36 6.0
e 107 300 4.0
e 109 11 2.0
e 109 218 2.0
e 110 285 4.0
e 111 315 36.0
e 111 179 19.0
e 111 184 25.0
e 111 235 43.0
e 111 243 33.0
e 111 127 5.0
e 111 172 44.0
e 111 255 2.0
e 111 99 38.0
e 111 256 86.0
e 111 248 49.0
e 111 280 9.0
e 111 34 10.0
e 111 12 39.0
e 111 49 14.0
e 111 27 22.0
e 111 31 25.0
e 111 153 46.0
e 112 68 2.0
e 112 240 1.0
e 116 156 12.0
e 116 296 3.0
e 118 21 84.0
e 118 2 19.0
e 118 135 94.0
e 118 175 25.0
e 118 113 3.0
e 118 194 24.0
e 118 212 19.0
e 118 152 92.0
e 118 261 41.0
e 118 39 9.0
e 118 317 6.0
e 118 43 48.0
e 118 96 28.0
e 118 262 48.0
e 118 89 68.0
e 118 4 54.0
e 118 47 48.0
e 118 164 45.0
e 118 114 66.0
e 118 185 14.0
e 118 69 40.0
e 118 265 8.0
e 118 73 75.0
e 118 220 47.0
e 118 0 47.0
e 118 139 41.0
e 118 87 3.0
e 118 278 79.0
e 118 282 98.0
e 118 134 9.0
e 118 136 15.0
e 118 79 94.0
e 118 263 83.0
e 118 253 79.0
e 118 239 42.0
e 118 63 58.0
e 118 54 33.0
e 119 106 1.0
e 119 212 50.0
e 120 3 9.0
e 120 221 2.0
e 121 303 11.0
e 121 129 8.0
e 122 9 1.0
e 123 157 1.0
e 123 263 3.0
e 124 229 20.0
e 125 201 8.0
e 125 124 7.0
e 125 181 11.0
e 125 131 54.0
e 125 132 39.0
e 126 119 2.0
e 127 123 1.0
e 128 78 2.0
e 130 283 2.0
e 130 241 1.0
e 131 63 96.0
e 131 269 55.0
e 131 318 37.0
e 131 120 34.0
e 131 242 75.0
e 131 218 46.0
e 131 158 41.0
e 131 262 19.0
e 131 207 78.0
e 131 292 53.0
e 131 230 15.0
e 131 187 18.0
e 131 102 81.0
e 131 225 32.0
e 131 273 20.0
e 131 130 1.0
e 131 52 52.0
e 131 62 36.0
e 131 72 91.0
e 131 108 45.0
e 131 245 99.0
e 131 200 74.0
e 131 164 59.0
e 131 300 16.0
e 131 184 35.0
e 131 106 36.0
e 131 234 8.0
e 131 195 79.0
e 131 185 88.0
e 131 101 48.0
e 131 285 20.0
e 131 194 20.0
e 131 191 2.0
e 131 16 77.0
e 131 148 60.0
e 132 22 41.0
e 132 263 96.0
e 132 265 10.0
e 132 179 63.0
e 132 37 9.0
e 132 229 95.0
e 132 301 72.0
e 132 247 16.0
e 132 65 65.0
e 132 168 89.0
e 132 91 86.0
e 132 43 86.0
e 132 285 28.0
e 132 208 72.0
e 132 312 71.0
e 132 156 5.0
e 132 140 93.0
e 132 118 11.0
e 132 308 64.0
e 132 126 73.0
e 132 244 20.0
e 132 110 90.0
e 132 130 53.0
e 132 286 79.0
e 132 270 51.0
e 132 127 8.0
e 132 32 5.0
e 132 105 52.0
e 132 218 81.0
e 132 238 36.0
e 132 3 95.0
e 132 261 10.0
e 132 302 6.0
e 132 177 46.0
e 133 24 11.0
e 133 239 7.0
e 135 83 5.0
e 135 76 6.0
e 135 120 6.0
e 136 288 95.0
e 136 42 23.0
e 136 74 24.0
e 136 84 34.0
e 136 1 63.0
e 136 193 76.0
e 136 240 8.0
e 136 213 38.0
e 136 68 50.0
e 136 75 94.0
e 136 299 78.0
e 136 261 30.0
e 136 187 55.0
e 136 20 17.0
e 136 243 93.0
e 136 39 43.0
e 136 69 95.0
e 136 134 6.0
e 136 52 30.0
e 136 72 44.0
e 136 244 17.0
e 136 268 86.0
e 136 48 6.0
e 136 130 20.0
e 136 279 69.0
e 136 201 65.0
e 136 88 84.0
e 136 249 30.0
e 136 217 2.0
e 136 151 50.0
e 136 277 62.0
e 136 148 8.0
e 136 51 64.0
e 136 188 98.0
e 136 189 75.0
e 136 248 35.0
e 137 232 4.0
e 137 225 2.0
e 141 153 6.0
e 142 173 10.0
e 142 123 9.0
e 143 194 50.0
e 143 183 89.0
e 143 106 88.0
e 143 238 90.0
e 143 218 26.0
e 143 234 54.0
e 143 200 78.0
e 143 83 9.0
e 143 241 7.0
e 143 213 60.0
e 143 79 25.0
e 143 20 37.0
e 143 284 28.0
e 143 45 34.0
e 143 280 25.0
e 143 135 72.0
e 143 53 77.0
e 143 130 96.0
e 143 39 99.0
e 143 134 69.0
e 143 311 34.0
e 143 108 72.0
e 143 283 60.0
e 143 187 22.0
e 143 191 21.0
e 143 265 74.0
e 143 174 48.0
e 143 150 68.0
e 143 2 65.0
e 143 57 32.0
e 143 168 82.0
e 143 51 8.0
e 143 171 48.0
e 143 72 41.0
e 143 16 13.0
e 143 64 32.0
e 147 303 23.0
e 147 299 2.0
e 147 238 20.0
e 147 314 4.0
e 147 111 49.0
e 147 197 10.0
e 147 198 7.0
e 147 23 25.0
e 149 166 2.0
e 155 61 1.0
e 158 175 2.0
e 159 55 1.0
e 159 145 1.0
e 159 73 2.0
e 160 122 1.0
e 161 31 3.0
e 161 269 7.0
e 161 255 2.0
e 161 212 79.0
e 163 118 13.0
e 165 286 1.0
e 165 1 1.0
e 165 253 3.0
e 167 116 2.0
e 170 25 6.0
e 170 236 8.0
e 176 85 3.0
e 176 308 3.0
e 180 170 2.0
e 181 297 3.0
e 181 26 12.0
e 181 203 5.0
e 182 177 4.0
e 182 315 1.0
e 183 4 1.0
e 183 123 3.0
e 186 180 6.0
e 186 135 7.0
e 188 162 2.0
e 188 59 12.0
e 188 80 8.0
e 189 253 5.0
e 189 63 7.0
e 189 242 6.0
e 189 26 1.0
e 191 165 2.0
e 191 112 8.0
e 191 42 9.0
e 192 316 99.0
e 192 168 83.0
e 192 304 95.0
e 192 57 33.0
e 192 74 52.0
e 192 223 96.0
e 192 87 62.0
e 192 198 33.0
e 192 238 33.0
e 192 59 46.0
e 192 123 27.0
e 192 60 28.0
e 192 269 57.0
e 192 97 59.0
e 192 239 37.0
e 192 103 13.0
e 192 273 49.0
e 192 23 62.0
e 192 75 37.0
e 192 206 33.0
e 192 22 27.0
e 192 108 37.0
e 192 204 87.0
e 192 260 49.0
e 192 129 92.0
e 192 88 45.0
e 192 189 5.0
e 192 302 64.0
e 192 32 15.0
e 192 289 85.0
e 192 17 24.0
e 192 181 8.0
e 192 217 42.0
e 192 113 13.0
e 192 207 37.0
e 192 61 22.0
e 193 282 3.0
e 195 302 9.0
e 199 55 1.0
e 201 180 17.0
e 201 39 40.0
e 201 169 3.0
e 201 269 7.0
e 201 220 14.0
e 201 40 23.0
e 201 288 21.0
e 202 317 9.0
e 202 118 18.0
e 202 97 1.0
e 202 207 9.0
e 202 233 6.0
e 203 256 32.0
e 204 19 8.0
e 204 294 1.0
e 206 302 7.0
e 208 137 5.0
e 210 163 3.0
e 210 143 94.0
e 210 261 6.0
e 212 292 96.0
e 212 295 74.0
e 212 32 74.0
e 212 294 48.0
e 212 124 40.0
e 212 162 81.0
e 212 20 27.0
e 212 187 51.0
e 212 90 36.0
e 212 87 97.0
e 212 251 43.0
e 212 52 89.0
e 212 30 12.0
e 212 220 48.0
e 212 4 53.0
e 212 171 87.0
e 212 2 99.0
e 212 43 42.0
e 212 25 49.0
e 212 95 78.0
e 212 55 9.0
e 212 278 22.0
e 212 108 63.0
e 212 268 68.0
e 212 198 18.0
e 212 168 40.0
e 212 257 30.0
e 212 289 14.0
e 212 284 33.0
e 212 221 63.0
e 212 74 19.0
e 212 248 93.0
e 212 28 42.0
e 213 255 45.0
e 213 54 75.0
e 213 207 78.0
e 213 79 19.0
e 213 85 11.0
e 213 65 40.0
e 213 289 27.0
e 213 81 42.0
e 213 35 69.0
e 213 216 84.0
e 213 219 28.0
e 213 8 82.0
e 213 80 2.0
e 213 74 78.0
e 213 187 86.0
e 213 82 44.0
e 213 105 25.0
e 213 156 53.0
e 213 119 15.0
e 213 88 41.0
e 213 4 67.0
e 213 38 12.0
e 213 3 86.0
e 213 302 1.0
e 213 192 59.0
e 213 282 99.0
e 213 137 27.0
e 213 196 1.0
e 213 39 93.0
e 213 140 95.0
e 213 198 74.0
e 213 220 89.0
e 213 127 28.0
e 213 109 13.0
e 213 33 8.0
e 214 271 1.0
e 214 74 21.0
e 214 275 21.0
e 214 86 12.0
e 214 72 7.0
e 214 191 8.0
e 214 288 24.0
e 214 103 7.0
e 214 168 8.0
e 214 186 8.0
e 215 116 2.0
e 215 201 5.0
e 215 246 1.0
e 222 18 3.0
e 222 115 3.0
e 223 313 1.0
e 223 118 29.0
e 223 184 11.0
e 223 146 11.0
e 224 166 9.0
e 224 192 76.0
e 224 180 1.0
e 227 237 1.0
e 229 110 21.0
e 229 18 19.0
e 229 159 20.0
e 229 275 72.0
e 229 125 13.0
e 229 56 7.0
e 229 220 5.0
e 229 79 2.0
e 232 197 85.0
e 232 136 6.0
e 232 12 94.0
e 232 71 56.0
e 232 93 90.0
e 232 13 100.0
e 232 175 92.0
e 232 264 12.0
e 232 29 53.0
e 232 43 59.0
e 232 314 43.0
e 232 301 11.0
e 232 26 16.0
e 232 270 15.0
e 232 222 23.0
e 232 127 3.0
e 232 91 32.0
e 232 115 95.0
e 232 180 27.0
e 232 237 21.0
e 232 166 99.0
e 232 133 6.0
e 232 224 7.0
e 232 271 31.0
e 232 257 40.0
e 232 16 35.0
e 232 200 4.0
e 232 272 65.0
e 232 99 24.0
e 232 241 1.0
e 232 283 21.0
e 232 305 48.0
e 232 113 54.0
e 232 57 80.0
e 233 92 21.0
e 233 5 16.0
e 233 59 19.0
e 233 164 10.0
e 233 175 7.0
e 233 44 23.0
e 233 170 11.0
e 233 267 21.0
e 236 261 1.0
e 245 212 24.0
e 245 220 19.0
e 245 138 13.0
e 245 239 18.0
e 245 160 10.0
e 245 175 24.0
e 245 0 4.0
e 245 83 13.0
e 245 301 24.0
e 250 300 1.0
e 251 272 2.0
e 252 236 10.0
e 252 315 4.0
e 254 210 10.0
e 254 142 8.0
e 254 184 10.0
e 254 283 11.0
e 254 166 2.0
e 256 241 61.0
e 256 217 74.0
e 256 146 98.0
e 256 108 27.0
e 256 50 90.0
e 256 29 47.0
e 256 260 92.0
e 256 169 59.0
e 256 238 64.0
e 256 224 22.0
e 256 90 24.0
e 256 112 27.0
e 256 234 91.0
e 256 206 2.0
e 256 164 99.0
e 256 151 92.0
e 256 4 80.0
e 256 263 42.0
e 256 140 70.0
e 256 34 55.0
e 256 49 53.0
e 256 38 55.0
e 256 83 20.0
e 256 134 70.0
e 256 235 80.0
e 256 48 82.0
e 256 40 88.0
e 256 315 50.0
e 256 70 84.0
e 256 14 61.0
e 256 192 39.0
e 256 273 11.0
e 256 25 54.0
e 258 289 41.0
e 258 316 83.0
e 258 93 91.0
e 258 39 78.0
e 258 114 39.0
e 258 284 44.0
e 258 9 98.0
e 258 165 74.0
e 258 126 73.0
e 258 66 80.0
e 258 161 62.0
e 258 34 85.0
e 258 226 85.0
e 258 167 68.0
e 258 86 25.0
e 258 235 4.0
e 258 203 76.0
e 258 89 68.0
e 258 214 46.0
e 258 312 98.0
e 258 232 47.0
e 258 207 7.0
e 258 42 99.0
e 258 160 69.0
e 258 133 90.0
e 258 273 100.0
e 258 11 41.0
e 258 317 18.0
e 258 294 57.0
e 258 159 49.0
e 258 238 60.0
e 258 278 81.0
e 258 48 77.0
e 258 136 100.0
e 258 128 83.0
e 260 155 53.0
e 260 203 18.0
e 260 266 10.0
e 260 313 29.0
e 260 258 82.0
e 260 6 79.0
e 260 206 27.0
e 260 62 98.0
e 260 26 78.0
e 260 88 68.0
e 260 263 57.0
e 260 201 25.0
e 260 239 16.0
e 260 148 8.0
e 260 275 61.0
e 260 180 47.0
e 260 151 46.0
e 260 282 67.0
e 260 16 66.0
e 260 185 46.0
e 260 128 38.0
e 260 131 66.0
e 260 306 81.0
e 260 186 88.0
e 260 198 3.0
e 260 130 58.0
e 260 33 4.0
e 260 252 25.0
e 260 290 71.0
e 260 149 13.0
e 260 173 39.0
e 260 301 90.0
e 260 67 24.0
e 260 34 84.0
e 260 56 59.0
e 263 28 2.0
e 263 24 12.0
e 263 114 21.0
e 267 221 3.0
e 267 211 1.0
e 267 218 8.0
e 268 24 32.0
e 268 34 32.0
e 268 209 16.0
e 268 139 48.0
e 268 28 20.0
e 268 313 30.0
e 268 205 8.0
e 268 72 2.0
e 268 217 12.0
e 268 255 34.0
e 268 215 19.0
e 268 221 24.0
e 268 254 11.0
e 268 157 8.0
e 271 132 48.0
e 274 263 15.0
e 275 106 52.0
e 275 151 59.0
e 275 37 43.0
e 275 278 38.0
e 275 316 70.0
e 275 99 2.0
e 275 150 74.0
e 275 177 56.0
e 275 227 67.0
e 275 225 15.0
e 275 215 56.0
e 275 192 10.0
e 275 179 21.0
e 275 300 31.0
e 275 59 69.0
e 275 46 93.0
e 275 58 27.0
e 275 190 40.0
e 275 183 24.0
e 275 56 64.0
e 275 142 39.0
e 275 84 3.0
e 275 34 73.0
e 275 54 53.0
e 275 42 37.0
e 275 119 86.0
e 275 134 89.0
e 275 68 3.0
e 275 285 49.0
e 275 216 91.0
e 275 57 8.0
e 275 199 13.0
e 275 203 10.0
e 276 53 1.0
e 278 37 22.0
e 278 221 3.0
e 278 228 12.0
e 278 136 1.0
e 278 281 23.0
e 278 213 14.0
e 278 159 48.0
e 278 261 10.0
e 278 276 19.0
e 278 6 43.0
e 278 69 32.0
e 278 71 5.0
e 278 70 43.0
e 278 85 32.0
e 278 124 11.0
e 281 260 62.0
e 287 63 2.0
e 287 133 8.0
e 287 127 1.0
e 287 253 11.0
e 287 117 3.0
e 291 73 1.0
e 293 12 10.0
e 293 120 1.0
e 295 56 1.0
e 297 316 4.0
e 298 48 5.0
e 303 17 16.0
e 303 227 20.0
e 303 45 10.0
e 303 165 4.0
e 303 282 1.0
e 303 309 5.0
e 303 139 9.0
e 304 156 1.0
e 304 169 1.0
e 305 15 80.0
e 305 226 15.0
e 305 36 99.0
e 305 171 19.0
e 305 177 91.0
e 305 147 13.0
e 305 285 2.0
e 305 187 58.0
e 305 236 15.0
e 305 23 44.0
e 305 218 12.0
e 305 67 26.0
e 305 50 48.0
e 305 264 61.0
e 305 89 20.0
e 305 237 64.0
e 305 42 74.0
e 305 220 67.0
e 305 252 44.0
e 305 54 21.0
e 305 99 62.0
e 305 253 10.0
e 305 270 96.0
e 305 215 82.0
e 305 149 47.0
e 305 268 33.0
e 305 299 27.0
e 305 172 90.0
e 305 260 1.0
e 305 183 81.0
e 305 150 8.0
e 305 219 65.0
e 305 308 93.0
e 305 78 34.0
e 307 233 22.0
e 316 181 20.0
e 316 310 32.0
e 316 204 3.0
e 316 165 46.0
e 316 72 15.0
e 316 35 33.0
e 316 156 49.0
e 316 55 5.0
e 316 270 14.0
e 316 100 35.0
e 316 259 11.0
e 316 287 30.0
e 318 27 14.0
e 318 280 19.0
e 318 231 1.0
e 318 145 5.0
e 318 122 7.0
e 318 201 6.0
e 318 141 13.0
e 318 211 6.0
e 319 294 1.0
e 319 298 1.0
